20 10
49 7 42 94 77 87 23 49 17 69
76 99 46 74 18 25 15 26 64 64
79 27 86 59 18 31 56 27 5 73
57 23 50 58 66 33 90 21 25 68
80 21 20 68 5 69 60 93 8 84
4 67 59 91 99 90 23 3 59 38
64 24 2 70 16 10 37 54 48 3
32 2 44 93 28 5 4 37 90 36
47 24 28 36 67 25 71 19 77 43
70 2 13 7 4 89 55 60 66 43
21 4 58 47 45 70 89 61 25 84
31 74 81 7 17 39 19 34 30 89
13 66 85 81 64 57 69 75 48 25
5 53 23 26 30 60 19 41 22 98
77 27 57 82 70 63 32 17 95 4
53 28 26 15 42 71 26 25 60 65
73 96 12 43 79 34 24 43 33 14
79 71 49 84 47 67 86 88 19 57
76 20 82 46 30 30 36 83 71 73
64 23 12 39 95 49 6 99 99 43
